DATASET = "thpack5";
INSTANCE = "044";

WIDTH = 233;
HEIGHT = 220;
LENGTH = 587;

NO_OF_SHAPES = 12;
size = [|
  114,67,25 |
  92,79,25 |
  89,87,36 |
  95,71,36 |
  90,83,43 |
  93,39,28 |
  69,54,31 |
  107,61,37 |
  98,52,40 |
  83,69,60 |
  98,63,58 |
  45,40,26 |
|];

verticality = [|
  0,0,1 |
  0,0,1 |
  0,0,1 |
  0,1,1 |
  0,1,1 |
  0,1,1 |
  0,1,1 |
  0,1,1 |
  0,1,1 |
  1,1,1 |
  1,1,1 |
  1,1,1 |
|];

box_count = [
  16,
  15,
  9,
  17,
  13,
  7,
  10,
  13,
  12,
  10,
  6,
  8,
];
